p cnf 1410 2227
-3 39 58 101 0
58 60 -101 102 0
60 62 97 -102 0
-24 -50 103 104 0
-24 -50 103 -104 0
-24 -50 -103 104 0
-24 -50 -103 -104 0
-43 58 -95 105 0
-43 58 -95 -105 0
17 -23 -65 106 0
17 -23 -65 -106 0
10 -14 -33 107 0
-33 -42 -107 108 0
-42 62 -108 109 0
62 -76 -88 -109 0
-10 18 -56 110 0
-56 -70 -110 111 0
-70 76 83 -111 0
-4 17 42 112 0
-4 17 42 -112 0
-2 9 113 114 0
-2 9 113 -114 0
-2 9 -113 114 0
-2 9 -113 -114 0
17 27 -55 115 0
-55 71 -115 116 0
71 86 -92 -116 0
34 -35 -57 81 0
-47 -58 -63 117 0
-47 -58 -63 -117 0
-41 -96 118 119 0
-41 -96 118 -119 0
-41 -96 -118 119 0
-41 -96 -118 -119 0
37 -50 -65 120 0
37 -50 -65 -120 0
11 13 -21 121 0
-21 -39 -121 122 0
-39 42 -122 123 0
42 -52 -123 124 0
-52 67 85 -124 0
12 -49 -61 125 0
-61 -67 -125 126 0
-67 90 95 -126 0
52 92 97 127 0
52 92 97 -127 0
10 -30 44 128 0
44 -46 -66 -128 0
52 -53 65 129 0
52 -53 65 -129 0
18 34 36 130 0
36 -58 -130 131 0
-58 61 -131 132 0
61 63 -84 -132 0
41 -46 74 133 0
74 85 -133 134 0
85 -87 -91 -134 0
-19 -58 62 135 0
62 -79 92 -135 0
-4 -16 36 136 0
36 -46 -84 -136 0
-35 -44 50 137 0
-35 -44 50 -137 0
-3 7 -20 138 0
-20 44 -138 139 0
44 46 99 -139 0
-4 54 67 140 0
67 -87 -96 -140 0
-29 -58 -69 141 0
-69 -86 89 -141 0
-5 8 -47 -79 0
-16 -27 38 142 0
38 -80 100 -142 0
-26 31 -44 143 0
-44 62 -143 144 0
62 -72 -144 145 0
-72 76 -145 146 0
76 79 -146 147 0
79 -81 -90 -147 0
9 65 70 77 0
2 9 10 71 0
-4 7 -20 148 0
-20 -37 -148 149 0
-37 -74 84 -149 0
53 61 64 71 0
16 35 -41 150 0
-41 -58 -150 151 0
-58 -60 -99 -151 0
44 -61 -66 152 0
-66 69 -152 153 0
69 83 -94 -153 0
9 -34 52 154 0
52 55 -154 155 0
55 61 -77 -155 0
5 -39 -68 -94 0
10 -24 59 156 0
59 -61 94 -156 0
7 47 68 69 0
8 49 64 157 0
64 76 98 -157 0
63 -66 158 159 0
63 -66 158 -159 0
63 -66 -158 159 0
63 -66 -158 -159 0
31 -48 -92 -96 0
4 -27 -31 160 0
-31 -43 100 -160 0
-22 24 -25 161 0
-25 35 -161 162 0
35 -39 -162 163 0
-39 -42 -163 164 0
-42 46 -82 -164 0
-6 45 69 165 0
69 72 -165 166 0
72 75 -78 -166 0
3 -8 84 -95 0
-12 17 21 167 0
21 -33 -167 168 0
-33 35 -168 169 0
35 39 85 -169 0
-18 40 44 170 0
44 56 -73 -170 0
-5 -57 -76 93 0
-37 86 96 171 0
-37 86 96 -171 0
21 82 86 -89 0
-1 12 18 172 0
18 21 -172 173 0
21 23 -173 174 0
23 -37 -53 -174 0
-15 -20 -33 86 0
2 -5 -18 175 0
-18 -60 -175 176 0
-60 -65 -176 177 0
-65 -72 -91 -177 0
-12 -35 97 178 0
-12 -35 97 -178 0
24 86 -88 -91 0
43 67 -77 179 0
43 67 -77 -179 0
17 18 -33 180 0
-33 71 79 -180 0
15 31 181 182 0
15 31 181 -182 0
15 31 -181 182 0
15 31 -181 -182 0
5 85 -94 183 0
5 85 -94 -183 0
-29 76 -88 184 0
-88 92 -184 185 0
92 94 -97 -185 0
-51 86 92 186 0
-51 86 92 -186 0
-18 -22 -26 187 0
-26 53 -77 -187 0
-55 -65 76 77 0
7 -12 -29 188 0
-29 36 -188 189 0
36 41 -189 190 0
41 -46 -190 191 0
-46 56 -191 192 0
56 -77 90 -192 0
4 10 21 193 0
21 30 73 -193 0
11 -14 20 194 0
20 -26 -194 195 0
-26 46 -195 196 0
46 93 -196 197 0
93 -95 -100 -197 0
47 64 -82 198 0
-82 -95 99 -198 0
-32 -52 -55 -71 0
-19 -49 -58 -78 0
37 48 -49 199 0
-49 -59 -199 200 0
-59 -62 -200 201 0
-62 65 -201 202 0
65 -73 -75 -202 0
-32 47 69 203 0
69 -92 -96 -203 0
2 30 -40 204 0
-40 -48 -204 205 0
-48 -53 -205 206 0
-53 -85 98 -206 0
-23 -76 -78 207 0
-23 -76 -78 -207 0
-15 28 208 209 0
-15 28 208 -209 0
-15 28 -208 209 0
-15 28 -208 -209 0
-31 35 -87 -90 0
4 27 32 91 0
-39 -79 210 211 0
-39 -79 210 -211 0
-39 -79 -210 211 0
-39 -79 -210 -211 0
-14 19 85 212 0
-14 19 85 -212 0
9 51 85 -99 0
3 -9 31 213 0
31 32 -213 214 0
32 -44 -214 215 0
-44 -74 -86 -215 0
-14 28 31 216 0
31 33 65 -216 0
17 37 40 217 0
40 41 -217 218 0
41 -73 -218 219 0
-73 75 -219 220 0
75 -95 99 -220 0
-5 27 -97 221 0
-5 27 -97 -221 0
14 25 -71 91 0
-30 33 -82 222 0
-30 33 -82 -222 0
46 -98 223 224 0
46 -98 223 -224 0
46 -98 -223 224 0
46 -98 -223 -224 0
3 22 24 225 0
24 26 -225 226 0
26 61 -226 227 0
61 -70 -227 228 0
-70 73 -228 229 0
73 93 94 -229 0
20 25 -67 230 0
20 25 -67 -230 0
-11 -21 231 232 0
-11 -21 231 -232 0
-11 -21 -231 232 0
-11 -21 -231 -232 0
49 -58 -70 -98 0
-22 81 92 233 0
-22 81 92 -233 0
-31 40 50 234 0
50 -80 86 -234 0
-7 9 14 235 0
14 -20 -235 236 0
-20 76 -236 237 0
76 95 96 -237 0
17 -19 -52 238 0
-52 -72 -238 239 0
-72 83 -88 -239 0
1 -16 18 54 0
-24 -46 -56 99 0
-19 -42 -57 240 0
-19 -42 -57 -240 0
-1 -14 36 75 0
2 -33 -35 241 0
-35 -58 -241 242 0
-58 60 -61 -242 0
-3 39 77 243 0
77 -78 -92 -243 0
-20 51 78 244 0
78 87 -99 -244 0
16 72 -75 245 0
16 72 -75 -245 0
62 73 84 87 0
41 -55 59 246 0
59 -70 -75 -246 0
1 3 24 247 0
24 -31 -247 248 0
-31 -40 -248 249 0
-40 -57 -62 -249 0
9 24 80 250 0
80 81 -97 -250 0
-15 26 27 251 0
27 -42 -251 252 0
-42 -45 72 -252 0
4 7 29 253 0
29 -44 -253 254 0
-44 -53 -90 -254 0
4 -25 37 -38 0
-8 -29 31 255 0
31 32 -255 256 0
32 -34 -256 257 0
-34 36 -257 258 0
36 37 -258 259 0
37 -39 -44 -259 0
3 -24 90 -96 0
10 -33 -42 260 0
-42 54 -260 261 0
54 65 -83 -261 0
-17 -67 75 262 0
75 76 95 -262 0
-10 28 -46 81 0
3 20 -60 263 0
-60 65 82 -263 0
-14 -30 -38 66 0
14 -18 -57 264 0
-57 63 -264 265 0
63 85 99 -265 0
4 18 -29 266 0
-29 40 -266 267 0
40 -79 -86 -267 0
6 -52 -57 268 0
6 -52 -57 -268 0
3 5 10 269 0
10 21 -269 270 0
21 -35 -270 271 0
-35 -38 -271 272 0
-38 48 74 -272 0
-6 14 23 273 0
23 87 94 -273 0
-10 -41 -50 274 0
-50 61 -274 275 0
61 62 -275 276 0
62 69 -79 -276 0
-1 -33 52 277 0
52 -57 -277 278 0
-57 68 -278 279 0
68 -85 90 -279 0
10 -27 68 72 0
8 -41 -54 280 0
-54 73 -85 -280 0
4 -6 -56 75 0
53 63 77 281 0
77 -83 86 -281 0
-4 -42 62 91 0
24 25 -30 282 0
-30 -44 -282 283 0
-44 52 -54 -283 0
8 36 284 285 0
8 36 284 -285 0
8 36 -284 285 0
8 36 -284 -285 0
-12 16 -48 59 0
-8 31 -46 286 0
-46 -51 -286 287 0
-51 -55 -287 288 0
-55 68 -288 289 0
68 73 -289 290 0
73 -86 90 -290 0
-9 33 -40 291 0
-9 33 -40 -291 0
6 -9 16 292 0
16 51 -292 293 0
51 -61 -72 -293 0
50 52 70 294 0
50 52 70 -294 0
-5 11 36 -67 0
25 75 78 295 0
25 75 78 -295 0
-61 64 -74 296 0
-61 64 -74 -296 0
48 49 80 297 0
48 49 80 -297 0
-7 47 53 298 0
53 68 -298 299 0
68 83 -299 300 0
83 90 -95 -300 0
-6 9 -30 -47 0
-20 39 44 301 0
44 53 -65 -301 0
-16 27 29 302 0
29 -50 -302 303 0
-50 -52 -303 304 0
-52 61 -304 305 0
61 -67 -71 -305 0
-19 70 75 -90 0
28 55 -90 306 0
28 55 -90 -306 0
7 -13 44 100 0
1 -5 -67 307 0
-67 -77 -100 -307 0
-2 33 36 308 0
36 -43 49 -308 0
52 66 67 309 0
52 66 67 -309 0
-6 15 -18 310 0
-18 -42 -310 311 0
-42 -46 -311 312 0
-46 74 -312 313 0
74 75 -313 314 0
75 -82 -314 315 0
-82 -87 -93 -315 0
-2 29 31 316 0
31 48 -316 317 0
48 -61 -317 318 0
-61 68 -69 -318 0
14 -24 40 319 0
40 -51 -319 320 0
-51 -83 -89 -320 0
-23 68 75 -76 0
-4 -8 18 321 0
18 -37 -321 322 0
-37 -57 -322 323 0
-57 62 -323 324 0
62 -69 -324 325 0
-69 -84 -325 326 0
-84 -88 -93 -326 0
-18 20 60 327 0
60 -86 -100 -327 0
4 71 78 -89 0
-5 12 13 328 0
13 48 -328 329 0
48 -61 -329 330 0
-61 -88 -91 -330 0
2 3 19 331 0
19 23 -331 332 0
23 -29 -332 333 0
-29 -53 100 -333 0
-14 -31 57 334 0
57 -67 -334 335 0
-67 87 89 -335 0
82 95 98 100 0
11 -30 -71 336 0
-71 -94 -100 -336 0
6 -19 -29 337 0
-29 -40 -337 338 0
-40 83 -338 339 0
83 84 -90 -339 0
42 80 340 341 0
42 80 340 -341 0
42 80 -340 341 0
42 80 -340 -341 0
-8 -15 42 342 0
42 -63 -342 343 0
-63 71 -343 344 0
71 93 99 -344 0
-12 -35 -54 67 0
-9 99 345 346 0
-9 99 345 -346 0
-9 99 -345 346 0
-9 99 -345 -346 0
10 -11 -22 347 0
-22 -37 -347 348 0
-37 -40 -348 349 0
-40 -61 -349 350 0
-61 -73 -350 351 0
-73 97 98 -351 0
-4 10 11 352 0
11 39 -352 353 0
39 71 -353 354 0
71 -76 83 -354 0
19 -48 51 355 0
51 -60 -355 356 0
-60 -63 -99 -356 0
-8 13 42 357 0
42 -57 61 -357 0
-17 26 -27 -30 0
-32 42 95 358 0
-32 42 95 -358 0
3 -11 -18 -57 0
29 41 65 359 0
65 -66 -359 360 0
-66 83 -360 361 0
83 84 95 -361 0
11 29 -35 362 0
-35 -79 -362 363 0
-79 83 -363 364 0
83 -91 -364 365 0
-91 94 -95 -365 0
14 -36 -40 366 0
-40 -52 -95 -366 0
6 30 367 368 0
6 30 367 -368 0
6 30 -367 368 0
6 30 -367 -368 0
13 76 -89 369 0
13 76 -89 -369 0
41 -72 -81 370 0
41 -72 -81 -370 0
23 -85 -87 93 0
-10 49 50 371 0
50 -59 -371 372 0
-59 -82 -88 -372 0
19 43 60 373 0
60 70 -373 374 0
70 71 -374 375 0
71 -74 -375 376 0
-74 -84 99 -376 0
13 -52 55 377 0
55 -61 64 -377 0
10 19 -57 73 0
63 -70 79 -86 0
5 -13 -30 48 0
-2 39 -43 378 0
-43 -65 -378 379 0
-65 68 -379 380 0
68 74 -380 381 0
74 -81 -84 -381 0
-17 20 -32 382 0
-32 45 -382 383 0
45 -50 -383 384 0
-50 -66 -384 385 0
-66 69 -72 -385 0
4 16 -38 386 0
-38 -47 -386 387 0
-47 58 -387 388 0
58 -59 -77 -388 0
-24 26 65 389 0
-24 26 65 -389 0
14 69 96 390 0
14 69 96 -390 0
-4 -33 -59 391 0
-4 -33 -59 -391 0
-52 67 392 393 0
-52 67 392 -393 0
-52 67 -392 393 0
-52 67 -392 -393 0
26 -32 -74 394 0
26 -32 -74 -394 0
19 -23 -42 395 0
-42 -51 -395 396 0
-51 71 -396 397 0
71 -85 -97 -397 0
-19 27 -65 398 0
-65 -79 -398 399 0
-79 85 92 -399 0
-13 26 51 400 0
-13 26 51 -400 0
-1 -11 18 401 0
-1 -11 18 -401 0
26 36 -64 402 0
-64 80 95 -402 0
43 -44 -66 90 0
-5 -56 -67 -72 0
46 -59 -74 403 0
46 -59 -74 -403 0
4 20 22 404 0
22 -30 -404 405 0
-30 -48 -405 406 0
-48 51 -406 407 0
51 -61 -407 408 0
-61 76 94 -408 0
1 6 21 409 0
21 -58 -409 410 0
-58 -70 -410 411 0
-70 -76 99 -411 0
19 -39 53 412 0
53 -55 -75 -412 0
61 -62 74 413 0
61 -62 74 -413 0
27 43 45 414 0
45 -67 -414 415 0
-67 70 -415 416 0
70 72 -93 -416 0
1 50 -55 417 0
-55 83 -417 418 0
83 94 -418 419 0
94 -96 -100 -419 0
-28 -67 71 -88 0
-13 -25 45 420 0
45 -55 -93 -420 0
8 -44 -53 59 0
-5 -12 16 421 0
16 -29 -421 422 0
-29 53 55 -422 0
-13 63 76 -96 0
-38 -67 -78 423 0
-78 -95 98 -423 0
9 -14 17 424 0
17 -56 -88 -424 0
-25 -36 47 -89 0
-35 40 -53 425 0
-53 71 -425 426 0
71 -81 -426 427 0
-81 85 -427 428 0
85 88 -428 429 0
88 -90 -99 -429 0
18 74 79 86 0
11 18 19 80 0
-13 16 -29 430 0
-29 -46 -430 431 0
-46 -83 93 -431 0
-8 62 70 432 0
70 73 80 -432 0
-3 25 44 433 0
44 -50 -433 434 0
-50 -67 -69 -434 0
53 -70 -75 435 0
-75 78 92 -435 0
-3 18 -43 436 0
-43 61 -436 437 0
61 64 -437 438 0
64 70 -86 -438 0
3 14 -48 -77 0
19 -33 68 -70 0
7 16 56 439 0
56 77 78 -439 0
17 58 73 85 0
-6 72 -75 440 0
-6 72 -75 -440 0
-1 -5 441 442 0
-1 -5 441 -442 0
-1 -5 -441 442 0
-1 -5 -441 -442 0
9 40 -57 443 0
9 40 -57 -443 0
13 -36 -40 -52 0
-31 33 -34 444 0
-34 44 -444 445 0
44 -48 -445 446 0
-48 -51 -446 447 0
-51 55 -91 -447 0
-4 -15 54 448 0
54 78 -448 449 0
78 81 -449 450 0
81 84 -87 -450 0
12 -17 93 451 0
12 -17 93 -451 0
-21 26 30 452 0
30 -42 -452 453 0
-42 44 -453 454 0
44 48 94 -454 0
2 -27 49 455 0
49 53 -455 456 0
53 65 -82 -456 0
5 -14 -66 -85 0
-46 95 457 458 0
-46 95 457 -458 0
-46 95 -457 458 0
-46 95 -457 -458 0
30 91 95 -98 0
-10 21 27 459 0
27 30 -459 460 0
30 32 -460 461 0
32 -46 -62 -461 0
-24 -29 -42 95 0
6 11 -14 462 0
-14 -27 -462 463 0
-27 -69 -463 464 0
-69 -74 -464 465 0
-74 -81 -100 -465 0
-21 -44 466 467 0
-21 -44 466 -467 0
-21 -44 -466 467 0
-21 -44 -466 -467 0
33 95 -97 -100 0
52 76 -86 468 0
52 76 -86 -468 0
26 27 -42 469 0
-42 80 88 -469 0
-3 24 40 470 0
-3 24 40 -470 0
1 3 -6 471 0
-6 14 94 -471 0
1 -38 85 -97 0
-60 95 472 473 0
-60 95 472 -473 0
-60 95 -472 473 0
-60 95 -472 -473 0
-27 -31 -35 474 0
-35 62 -86 -474 0
-64 -74 85 86 0
16 -21 -38 475 0
-38 45 -475 476 0
45 50 -476 477 0
50 -55 -477 478 0
-55 65 -478 479 0
65 -86 99 -479 0
2 -4 -9 480 0
-9 13 -480 481 0
13 19 -481 482 0
19 30 -482 483 0
30 39 82 -483 0
-4 8 20 484 0
20 -23 -484 485 0
-23 29 -485 486 0
29 -35 55 -486 0
56 73 -91 487 0
56 73 -91 -487 0
-41 -61 -64 -80 0
-28 -58 -67 -87 0
-1 -5 46 488 0
46 57 -488 489 0
57 -58 -489 490 0
-58 -68 -490 491 0
-68 -71 -491 492 0
-71 74 -492 493 0
74 -82 -84 -493 0
7 -41 56 78 0
11 39 -49 494 0
-49 -57 -494 495 0
-57 -62 -94 -495 0
-32 -85 -87 496 0
-32 -85 -87 -496 0
-24 37 497 498 0
-24 37 497 -498 0
-24 37 -497 498 0
-24 37 -497 -498 0
-40 44 -96 -99 0
13 36 41 100 0
-48 -88 499 500 0
-48 -88 499 -500 0
-48 -88 -499 500 0
-48 -88 -499 -500 0
-8 -23 28 94 0
18 60 94 501 0
18 60 94 -501 0
12 -18 40 502 0
40 41 -502 503 0
41 -53 -503 504 0
-53 -83 -95 -504 0
-4 8 -23 505 0
-23 37 -505 506 0
37 40 -506 507 0
40 42 74 -507 0
-6 26 46 508 0
46 49 -508 509 0
49 50 -509 510 0
50 -82 84 -510 0
-14 36 511 512 0
-14 36 511 -512 0
-14 36 -511 512 0
-14 36 -511 -512 0
23 34 -80 100 0
-7 -39 42 -91 0
2 3 55 513 0
2 3 55 -513 0
12 31 33 514 0
33 35 -514 515 0
35 70 -515 516 0
70 -79 82 -516 0
29 34 -76 517 0
29 34 -76 -517 0
-7 -20 -30 518 0
-7 -20 -30 -518 0
1 58 -67 -79 0
-31 90 519 520 0
-31 90 519 -520 0
-31 90 -519 520 0
-31 90 -519 -520 0
4 5 -40 521 0
-40 49 -521 522 0
49 59 -522 523 0
59 -89 95 -523 0
-16 18 23 524 0
23 -29 85 -524 0
26 -28 -61 525 0
-61 -81 -525 526 0
-81 92 -97 -526 0
8 10 -25 527 0
-25 27 63 -527 0
-33 -55 -65 528 0
-33 -55 -65 -528 0
-28 -51 -66 529 0
-28 -51 -66 -529 0
-10 -23 45 84 0
-1 11 -42 530 0
-42 -44 -530 531 0
-44 -67 -531 532 0
-67 69 -70 -532 0
-8 -12 48 533 0
48 86 -87 -533 0
-29 60 87 96 0
25 81 -84 534 0
25 81 -84 -534 0
71 82 93 96 0
50 -64 68 535 0
68 -79 -84 -535 0
-6 10 12 536 0
12 33 -536 537 0
33 -40 -537 538 0
-40 -49 -538 539 0
-49 -66 -71 -539 0
18 33 89 90 0
-24 35 36 540 0
36 -51 -540 541 0
-51 -54 81 -541 0
13 16 38 542 0
38 -53 -542 543 0
-53 -62 -99 -543 0
13 -34 46 -47 0
-5 -17 -38 544 0
-38 40 -544 545 0
40 41 -545 546 0
41 -43 -546 547 0
-43 45 -547 548 0
45 46 -548 549 0
46 -48 -53 -549 0
12 -33 99 550 0
12 -33 99 -550 0
4 19 -42 551 0
-42 -51 -551 552 0
-51 63 -552 553 0
63 74 -92 -553 0
-26 -76 84 85 0
-19 37 -55 90 0
12 29 -69 554 0
-69 74 91 -554 0
8 -23 -39 555 0
-39 -47 75 -555 0
23 -27 -66 556 0
-66 72 94 -556 0
13 27 -38 557 0
-38 49 -557 558 0
49 -88 -95 -558 0
15 -61 -66 559 0
15 -61 -66 -559 0
3 12 14 560 0
14 19 -560 561 0
19 30 -561 562 0
30 -44 -562 563 0
-44 -47 -563 564 0
-47 57 83 -564 0
-15 23 32 96 0
-19 -50 -59 565 0
-59 70 -565 566 0
70 71 -566 567 0
71 78 -88 -567 0
-10 -42 61 568 0
61 -66 -568 569 0
-66 77 -569 570 0
77 -94 99 -570 0
19 -36 77 81 0
17 -50 -63 571 0
-63 82 -94 -571 0
13 -15 -65 84 0
62 72 86 572 0
86 -92 95 -572 0
-13 -51 71 100 0
33 34 -39 573 0
-39 -53 -573 574 0
-53 61 -63 -574 0
17 45 575 576 0
17 45 575 -576 0
17 45 -575 576 0
17 45 -575 -576 0
-21 25 -57 68 0
-17 40 -55 577 0
-55 -60 -577 578 0
-60 -64 -578 579 0
-64 77 -579 580 0
77 82 -580 581 0
82 -95 99 -581 0
-18 42 -49 582 0
-18 42 -49 -582 0
15 -18 25 583 0
25 60 -583 584 0
60 -70 -81 -584 0
59 61 79 585 0
59 61 79 -585 0
-14 20 45 -76 0
34 84 87 586 0
34 84 87 -586 0
-70 73 -83 587 0
-70 73 -83 -587 0
-4 57 58 89 0
-16 56 62 588 0
62 77 -588 589 0
77 92 99 -589 0
-15 18 -39 -56 0
-29 48 53 590 0
53 62 -74 -590 0
-25 36 38 591 0
38 -59 -591 592 0
-59 -61 -592 593 0
-61 70 -593 594 0
70 -76 -80 -594 0
-28 79 84 -99 0
9 37 64 -99 0
-9 16 -22 53 0
10 -14 -76 -86 0
-11 42 45 595 0
45 -52 58 -595 0
-2 61 75 76 0
-15 24 -27 596 0
-27 -51 -596 597 0
-51 -55 -597 598 0
-55 83 -598 599 0
83 84 -599 600 0
84 -91 -96 -600 0
-11 38 40 601 0
40 57 -601 602 0
57 -70 -602 603 0
-70 77 -78 -603 0
23 -33 49 604 0
49 -60 -604 605 0
-60 -92 -98 -605 0
-2 -32 77 606 0
77 84 -85 -606 0
-9 -13 -17 607 0
-17 27 -607 608 0
27 -46 -608 609 0
-46 -66 -609 610 0
-66 71 -610 611 0
71 -78 -611 612 0
-78 -93 -97 -612 0
-27 29 69 -95 0
13 80 87 -98 0
9 -14 21 613 0
21 22 -613 614 0
22 57 -614 615 0
57 -70 -615 616 0
-70 -97 -100 -616 0
11 12 28 617 0
28 32 -617 618 0
32 -38 -62 -618 0
4 7 9 619 0
9 -23 -619 620 0
-23 -40 -620 621 0
-40 66 -621 622 0
66 -76 -622 623 0
-76 96 98 -623 0
-3 -9 91 624 0
-3 -9 91 -624 0
20 -39 -80 625 0
20 -39 -80 -625 0
15 -28 -38 626 0
-38 -49 -626 627 0
-49 92 -627 628 0
92 93 -99 -628 0
2 8 51 89 0
-17 -24 51 629 0
51 -72 80 -629 0
8 -21 -44 630 0
-44 -63 76 -630 0
6 7 -18 631 0
6 7 -18 -631 0
19 -20 -31 632 0
-31 -46 -632 633 0
-46 -49 -633 634 0
-49 -70 -82 -634 0
-8 -13 19 635 0
19 20 -635 636 0
20 48 -636 637 0
48 80 -637 638 0
80 -85 92 -638 0
28 -57 60 639 0
60 -69 -72 -639 0
-17 22 51 640 0
51 -66 70 -640 0
4 -26 35 641 0
35 -36 -39 -641 0
-41 51 642 643 0
-41 51 642 -643 0
-41 51 -642 643 0
-41 51 -642 -643 0
4 12 -20 644 0
-20 -27 -66 -644 0
3 -4 38 645 0
38 50 -645 646 0
50 74 -646 647 0
74 -75 -647 648 0
-75 92 93 -648 0
-4 20 38 649 0
38 -44 -649 650 0
-44 -88 -650 651 0
-88 92 -100 -651 0
23 -45 -49 -61 0
15 39 652 653 0
15 39 652 -653 0
15 39 -652 653 0
15 39 -652 -653 0
22 85 -98 654 0
22 85 -98 -654 0
2 50 -81 -90 0
32 -94 -96 655 0
32 -94 -96 -655 0
8 -19 58 656 0
58 59 -656 657 0
59 -68 -657 658 0
-68 -91 -97 -658 0
28 52 69 659 0
69 79 -659 660 0
79 80 -660 661 0
80 -83 -93 -661 0
22 -61 64 662 0
64 -70 73 -662 0
19 28 -66 82 0
72 -79 88 -95 0
14 -22 -39 57 0
-11 48 -52 663 0
-52 -74 -663 664 0
-74 77 -664 665 0
77 83 -665 666 0
83 -90 -93 -666 0
-26 29 -41 667 0
-41 54 -667 668 0
54 -59 -668 669 0
-59 -75 -669 670 0
-75 78 -81 -670 0
13 25 -47 671 0
-47 -56 -671 672 0
-56 67 -672 673 0
67 -68 -86 -673 0
5 -33 35 74 0
23 78 674 675 0
23 78 674 -675 0
23 78 -674 675 0
23 78 -674 -675 0
-13 -42 -68 676 0
-13 -42 -68 -676 0
-61 76 677 678 0
-61 76 677 -678 0
-61 76 -677 678 0
-61 76 -677 -678 0
-6 35 -41 -83 0
1 28 -32 679 0
-32 -51 -679 680 0
-51 -60 -680 681 0
-60 80 -94 -681 0
-28 36 -74 682 0
-74 -88 94 -682 0
-22 35 60 683 0
-22 35 60 -683 0
4 -10 -20 27 0
35 45 -73 89 0
52 -53 -75 99 0
-14 -65 -76 -81 0
3 55 -68 -83 0
8 13 29 684 0
29 31 -684 685 0
31 -39 -685 686 0
-39 -57 -686 687 0
-57 60 -687 688 0
60 -70 85 -688 0
10 15 30 689 0
30 -67 -689 690 0
-67 -79 -85 -690 0
28 -48 62 691 0
62 -64 -84 -691 0
70 -71 83 692 0
70 -71 83 -692 0
3 -5 -9 693 0
-9 36 -693 694 0
36 52 -694 695 0
52 54 -695 696 0
54 -76 -696 697 0
-76 79 81 -697 0
10 59 -64 92 0
-2 -37 -76 698 0
-76 80 -97 -698 0
-22 -34 54 -64 0
17 -53 -62 68 0
-5 -14 -21 699 0
-21 25 -699 700 0
25 -38 -700 701 0
-38 62 64 -701 0
-4 7 -22 702 0
-22 72 85 -702 0
-47 -76 -87 703 0
-47 -76 -87 -703 0
18 -23 26 704 0
26 -65 -97 -704 0
-8 -34 -45 705 0
-45 56 -98 -705 0
-44 49 -62 706 0
-62 80 -706 707 0
80 -90 -707 708 0
-90 94 -708 709 0
94 97 -99 -709 0
27 83 88 95 0
2 20 27 710 0
27 28 89 -710 0
-22 25 -38 711 0
-38 -55 -92 -711 0
-17 71 79 712 0
79 82 89 -712 0
1 -12 34 713 0
34 53 -713 714 0
53 -59 -714 715 0
-59 -76 -78 -715 0
62 -79 -84 87 0
-12 27 -52 716 0
-52 70 -716 717 0
70 73 -717 718 0
73 79 -95 -718 0
12 23 -57 -86 0
28 -42 77 -79 0
16 25 65 719 0
65 86 87 -719 0
26 67 82 94 0
-15 81 -84 720 0
-15 81 -84 -720 0
-10 -14 721 722 0
-10 -14 721 -722 0
-10 -14 -721 722 0
-10 -14 -721 -722 0
18 49 -66 723 0
18 49 -66 -723 0
22 -45 -49 -61 0
-40 42 -43 724 0
-43 53 -724 725 0
53 -57 -725 726 0
-57 -60 -726 727 0
-60 64 -100 -727 0
2 -13 -24 728 0
-24 63 -728 729 0
63 87 -729 730 0
87 90 -730 731 0
90 93 -96 -731 0
3 21 -26 732 0
3 21 -26 -732 0
-30 35 39 733 0
39 -51 -733 734 0
-51 53 57 -734 0
11 -36 58 735 0
58 62 -735 736 0
62 74 -91 -736 0
4 14 -23 737 0
-23 -75 -94 -737 0
4 -7 -55 738 0
4 -7 -55 -738 0
39 100 739 740 0
39 100 739 -740 0
39 100 -739 740 0
39 100 -739 -740 0
4 -19 30 741 0
30 36 -741 742 0
36 39 -742 743 0
39 41 -743 744 0
41 -55 -71 -744 0
-9 -33 -38 -51 0
15 20 -23 745 0
-23 -36 -745 746 0
-36 -78 -746 747 0
-78 -83 -90 -747 0
4 -6 -9 748 0
-9 -30 -53 -748 0
61 85 -95 749 0
61 85 -95 -749 0
35 36 -51 750 0
-51 89 97 -750 0
3 -12 33 49 0
-6 10 12 751 0
12 -15 23 -751 0
4 10 -47 94 0
-36 -40 -44 752 0
-44 71 -95 -752 0
8 -73 -83 753 0
-83 94 95 -753 0
25 -30 -47 754 0
-47 54 -754 755 0
54 59 -755 756 0
59 -64 -756 757 0
-64 74 -95 -757 0
11 -13 -18 758 0
-18 22 -758 759 0
22 28 -759 760 0
28 39 -760 761 0
39 48 91 -761 0
-13 17 29 762 0
29 -32 -762 763 0
-32 38 -763 764 0
38 -44 64 -764 0
65 82 -100 765 0
65 82 -100 -765 0
-50 -70 -73 -89 0
-37 -67 -76 -96 0
-10 -14 55 766 0
55 66 -766 767 0
66 -67 -767 768 0
-67 -77 -768 769 0
-77 -80 -769 770 0
-80 83 -770 771 0
83 -91 -93 -771 0
-3 16 -50 772 0
-50 65 87 -772 0
20 48 -58 773 0
-58 -66 -71 -773 0
-41 -94 -96 774 0
-41 -94 -96 -774 0
-5 -8 -33 46 0
9 -49 53 775 0
9 -49 53 -775 0
22 45 50 776 0
22 45 50 -776 0
3 -57 -97 777 0
3 -57 -97 -777 0
3 -17 -32 37 0
27 69 778 779 0
27 69 778 -779 0
27 69 -778 779 0
27 69 -778 -779 0
-4 21 780 781 0
-4 21 780 -781 0
-4 21 -780 781 0
-4 21 -780 -781 0
21 -27 49 782 0
49 50 -782 783 0
50 -62 -92 -783 0
-13 17 -32 784 0
-32 46 -784 785 0
46 49 -785 786 0
49 51 83 -786 0
-15 35 55 787 0
55 58 -787 788 0
58 59 -788 789 0
59 -91 93 -789 0
9 -23 45 790 0
9 -23 45 -790 0
32 43 -89 791 0
32 43 -89 -791 0
-16 -48 51 -100 0
11 12 64 792 0
11 12 64 -792 0
21 40 42 793 0
42 44 -793 794 0
44 79 -794 795 0
79 -88 91 -795 0
38 43 -85 796 0
38 43 -85 -796 0
-16 -29 -39 797 0
-16 -29 -39 -797 0
10 67 -76 -88 0
4 -40 99 798 0
4 -40 99 -798 0
13 14 -49 799 0
-49 58 -799 800 0
58 68 -98 -800 0
1 -6 -25 801 0
-25 27 -801 802 0
27 32 -802 803 0
32 -38 94 -803 0
35 -37 -70 -90 0
17 19 -34 804 0
-34 36 72 -804 0
-42 -64 -74 805 0
-42 -64 -74 -805 0
-37 -60 -75 806 0
-37 -60 -75 -806 0
-19 -32 54 93 0
-10 20 -51 807 0
-51 -53 -807 808 0
-53 -76 -808 809 0
-76 78 -79 -809 0
5 -17 -21 810 0
-21 57 -810 811 0
57 95 -96 -811 0
-38 69 96 812 0
-38 69 96 -812 0
2 5 34 813 0
34 90 -93 -813 0
80 91 814 815 0
80 91 814 -815 0
80 91 -814 815 0
80 91 -814 -815 0
59 -73 77 816 0
77 -88 -93 -816 0
-15 19 21 817 0
21 42 -817 818 0
42 -49 -818 819 0
-49 -58 -819 820 0
-58 -75 -80 -820 0
27 42 98 99 0
-8 -33 44 821 0
44 45 -821 822 0
45 -60 -822 823 0
-60 -63 90 -823 0
22 25 47 824 0
47 -62 -71 -824 0
22 -43 55 -56 0
8 -14 -26 825 0
-26 -47 -825 826 0
-47 49 -826 827 0
49 50 -827 828 0
50 -52 -828 829 0
-52 54 -829 830 0
54 55 -830 831 0
55 -57 -62 -831 0
21 -42 832 833 0
21 -42 832 -833 0
21 -42 -832 833 0
21 -42 -832 -833 0
-1 -100 834 835 0
-1 -100 834 -835 0
-1 -100 -834 835 0
-1 -100 -834 -835 0
13 28 -51 836 0
-51 -60 -836 837 0
-60 72 83 -837 0
-35 -85 93 94 0
-28 46 -64 99 0
21 38 -78 838 0
-78 83 100 -838 0
3 17 -32 839 0
-32 -48 -839 840 0
-48 -56 84 -840 0
32 -36 -75 81 0
22 36 -47 841 0
-47 58 -97 -841 0
24 -70 -75 842 0
24 -70 -75 -842 0
5 12 21 843 0
21 23 -843 844 0
23 28 -844 845 0
28 39 -845 846 0
39 -53 -846 847 0
-53 -56 -847 848 0
-56 66 92 -848 0
-24 32 41 849 0
-24 32 41 -849 0
-3 8 -28 850 0
-28 -59 -850 851 0
-59 -68 -851 852 0
-68 79 -852 853 0
79 80 -853 854 0
80 87 -97 -854 0
-19 -51 70 855 0
70 -75 86 -855 0
-3 28 -45 856 0
-45 86 90 -856 0
26 -59 -72 91 0
-1 4 22 857 0
22 -24 -857 858 0
-24 -74 93 -858 0
9 71 81 95 0
-22 -60 80 859 0
-22 -60 80 -859 0
42 43 -48 860 0
-48 -62 -860 861 0
-62 70 -72 -861 0
26 54 862 863 0
26 54 862 -863 0
26 54 -862 863 0
26 54 -862 -863 0
-4 8 -30 864 0
-30 34 -864 865 0
34 -66 77 -865 0
-26 49 -64 866 0
-64 -69 -866 867 0
-69 -73 -867 868 0
-73 86 91 -868 0
-27 51 -58 869 0
-27 51 -58 -869 0
24 -27 34 870 0
34 69 -870 871 0
69 -79 -90 -871 0
68 70 88 872 0
68 70 88 -872 0
-23 29 54 -85 0
43 93 96 873 0
43 93 96 -873 0
-79 82 -92 874 0
-79 82 -92 -874 0
1 8 -13 875 0
-13 66 -875 876 0
66 67 98 -876 0
-25 65 71 86 0
-24 27 -48 -65 0
-38 57 62 877 0
62 71 -83 -877 0
-8 -34 45 878 0
45 47 -878 879 0
47 -68 -879 880 0
-68 -70 -880 881 0
-70 79 -881 882 0
79 -85 -89 -882 0
-8 -37 88 93 0
18 46 73 883 0
18 46 73 -883 0
-18 25 -31 62 0
19 -23 -85 -95 0
-20 51 54 884 0
54 -61 67 -884 0
-5 -11 70 885 0
70 84 85 -885 0
-24 33 -36 886 0
-36 -60 -886 887 0
-60 -64 -887 888 0
-64 92 -888 889 0
92 93 -100 -889 0
-1 -7 -20 890 0
-20 47 -890 891 0
47 49 -891 892 0
49 66 -892 893 0
66 -79 -893 894 0
-79 86 -87 -894 0
32 -42 58 -69 0
-2 -6 -11 895 0
-11 -41 -895 896 0
-41 86 -896 897 0
86 93 -94 -897 0
-4 -18 -22 898 0
-22 -26 -898 899 0
-26 36 -899 900 0
36 -55 -900 901 0
-55 -75 -901 902 0
-75 80 -87 -902 0
-7 -36 38 78 0
-6 -9 22 903 0
22 89 96 -903 0
18 -23 30 904 0
30 31 -904 905 0
31 66 -79 -905 0
5 7 20 906 0
20 21 -906 907 0
21 37 -907 908 0
37 41 -908 909 0
41 -47 -71 -909 0
13 16 18 910 0
18 -32 -910 911 0
-32 -49 -911 912 0
-49 75 -85 -912 0
-12 -18 100 913 0
-12 -18 100 -913 0
1 2 -8 914 0
-8 29 -914 915 0
29 -48 -89 -915 0
24 -37 -47 -58 0
11 17 60 98 0
-26 -33 60 916 0
60 -81 89 -916 0
17 -30 -53 917 0
-53 -72 85 -917 0
15 16 -27 918 0
15 16 -27 -918 0
1 28 -29 919 0
-29 -40 -919 920 0
-40 -55 -920 921 0
-55 -58 -921 922 0
-58 -79 -91 -922 0
-17 -22 28 923 0
28 29 -923 924 0
29 57 -924 925 0
57 89 -94 -925 0
37 -66 69 926 0
69 -78 -81 -926 0
-26 31 60 927 0
60 -75 79 -927 0
13 -35 44 928 0
44 -45 -48 -928 0
-50 60 929 930 0
-50 60 929 -930 0
-50 60 -929 930 0
-50 60 -929 -930 0
1 2 13 931 0
13 21 -931 932 0
21 -29 -932 933 0
-29 -36 -75 -933 0
1 -9 12 934 0
12 -13 -934 935 0
-13 47 -935 936 0
47 59 -936 937 0
59 83 -84 -937 0
-13 29 47 938 0
47 -53 -97 -938 0
32 -54 -58 -70 0
-7 24 48 939 0
-7 24 48 -939 0
31 94 940 941 0
31 94 940 -941 0
31 94 -940 941 0
31 94 -940 -941 0
-3 -5 11 942 0
11 59 -942 943 0
59 -90 -99 -943 0
-6 41 944 945 0
-6 41 944 -945 0
-6 41 -944 945 0
-6 41 -944 -945 0
-2 17 -28 946 0
-28 67 -946 947 0
67 68 -947 948 0
68 -77 -100 -948 0
37 61 78 949 0
78 88 -949 950 0
88 89 -92 -950 0
31 -70 73 951 0
73 -79 82 -951 0
-4 28 37 952 0
37 -75 91 -952 0
81 -88 97 953 0
81 -88 97 -953 0
-2 23 -31 954 0
-31 -48 66 -954 0
-20 57 -61 955 0
-61 -83 -955 956 0
-83 86 -956 957 0
86 92 -99 -957 0
-35 38 -50 958 0
-50 63 -958 959 0
63 -68 -959 960 0
-68 -84 -960 961 0
-84 87 -90 -961 0
22 34 -56 962 0
-56 -65 -962 963 0
-65 76 -963 964 0
76 -77 -95 -964 0
14 -42 44 83 0
32 87 965 966 0
32 87 965 -966 0
32 87 -965 966 0
32 87 -965 -966 0
-22 -51 -77 967 0
-22 -51 -77 -967 0
-70 85 968 969 0
-70 85 968 -969 0
-70 85 -968 969 0
-70 85 -968 -969 0
-3 -15 44 970 0
44 -50 -92 -970 0
3 10 37 971 0
37 -41 -971 972 0
-41 -60 -972 973 0
-60 -69 89 -973 0
-37 45 -83 -97 0
-31 44 69 974 0
-31 44 69 -974 0
13 -19 -29 36 0
8 44 54 975 0
54 -82 98 -975 0
61 -62 -84 976 0
61 -62 -84 -976 0
-23 -74 -85 -90 0
12 64 -77 -92 0
17 22 38 977 0
38 40 -977 978 0
40 -48 -978 979 0
-48 -66 -979 980 0
-66 69 -980 981 0
69 -79 94 -981 0
19 24 39 982 0
39 -76 -982 983 0
-76 -88 -94 -983 0
37 -57 71 984 0
71 -73 -93 -984 0
79 -80 92 985 0
79 -80 92 -985 0
1 12 -14 986 0
-14 -18 -986 987 0
-18 45 -987 988 0
45 61 -988 989 0
61 63 -989 990 0
63 -85 -990 991 0
-85 88 90 -991 0
-6 19 68 -73 0
-11 -46 -85 89 0
-31 -43 63 -73 0
26 -62 -71 77 0
-14 -23 -30 992 0
-30 34 -992 993 0
34 -47 -993 994 0
-47 71 73 -994 0
-13 16 -31 995 0
-31 81 94 -995 0
-6 -56 -85 -96 0
-7 27 -32 996 0
-32 35 -74 -996 0
3 6 -8 997 0
-8 -17 -997 998 0
-17 -43 -998 999 0
-43 -54 65 -999 0
4 -53 58 1000 0
58 -71 -1000 1001 0
-71 89 -99 -1001 0
36 92 97 1002 0
36 92 97 -1002 0
-1 11 29 1003 0
29 36 -1003 1004 0
36 37 98 -1004 0
-31 34 -47 -64 0
-26 80 88 1005 0
88 91 98 -1005 0
10 -21 43 1006 0
43 62 -1006 1007 0
62 -68 -1007 1008 0
-68 -85 -87 -1008 0
71 -88 -93 96 0
-4 -63 1009 1010 0
-4 -63 1009 -1010 0
-4 -63 -1009 1010 0
-4 -63 -1009 -1010 0
-21 36 -61 1011 0
-61 79 -1011 1012 0
79 82 88 -1012 0
21 32 -66 -95 0
37 -51 86 -88 0
3 25 34 1013 0
34 74 -1013 1014 0
74 95 96 -1014 0
35 76 91 1015 0
35 76 91 -1015 0
-24 90 -93 1016 0
-24 90 -93 -1016 0
-19 -23 1017 1018 0
-19 -23 1017 -1018 0
-19 -23 -1017 1018 0
-19 -23 -1017 -1018 0
27 58 -75 1019 0
27 58 -75 -1019 0
-9 31 -54 1020 0
-54 -58 -70 -1020 0
2 -5 -49 1021 0
-49 51 -1021 1022 0
51 -52 -1022 1023 0
-52 62 -1023 1024 0
62 -66 -1024 1025 0
-66 -69 73 -1025 0
11 -22 -33 1026 0
-33 72 -1026 1027 0
72 96 99 -1027 0
12 30 -35 1028 0
12 30 -35 -1028 0
-39 44 48 1029 0
48 -60 -1029 1030 0
-60 62 66 -1030 0
-3 20 -45 1031 0
-45 67 -1031 1032 0
67 71 -1032 1033 0
71 83 -100 -1033 0
13 23 -32 -84 0
9 13 -16 -64 0
13 -28 39 1034 0
39 45 -1034 1035 0
45 48 -1035 1036 0
48 50 -1036 1037 0
50 -64 -80 -1037 0
-18 -42 -47 -60 0
24 29 -32 1038 0
-32 -45 -1038 1039 0
-45 -87 -1039 1040 0
-87 -92 -99 -1040 0
13 -15 -18 1041 0
-18 -39 -62 -1041 0
-4 51 1042 1043 0
-4 51 1042 -1043 0
-4 51 -1042 1043 0
-4 51 -1042 -1043 0
6 70 94 1044 0
6 70 94 -1044 0
44 45 -60 98 0
12 -21 42 58 0
3 -15 19 1045 0
19 21 -1045 1046 0
21 -24 32 -1046 0
13 19 -56 1047 0
13 19 -56 -1047 0
-4 -78 1048 1049 0
-4 -78 1048 -1049 0
-4 -78 -1048 1049 0
-4 -78 -1048 -1049 0
3 4 -45 1050 0
-45 -49 -1050 1051 0
-49 -53 80 -1051 0
-4 17 -82 -92 0
34 -39 -56 1052 0
-56 63 -1052 1053 0
63 68 -1053 1054 0
68 -73 83 -1054 0
20 -22 -27 1055 0
-27 31 -1055 1056 0
31 37 -1056 1057 0
37 48 -1057 1058 0
48 57 100 -1058 0
-9 -22 26 1059 0
26 38 -1059 1060 0
38 -41 -1060 1061 0
-41 47 -1061 1062 0
47 -53 73 -1062 0
74 91 1063 1064 0
74 91 1063 -1064 0
74 91 -1063 1064 0
74 91 -1063 -1064 0
-5 -59 -79 1065 0
-79 -82 -98 -1065 0
-2 -46 -76 -85 0
-19 -23 64 1066 0
64 75 -1066 1067 0
75 -76 -1067 1068 0
-76 -86 -1068 1069 0
-86 -89 -1069 1070 0
-89 92 -100 -1070 0
-12 25 -59 1071 0
-59 74 96 -1071 0
-3 -5 29 1072 0
29 57 -1072 1073 0
57 -67 -1073 1074 0
-67 -75 -80 -1074 0
-14 -17 -42 55 0
18 -58 62 1075 0
18 -58 62 -1075 0
-6 31 54 59 0
12 -66 1076 1077 0
12 -66 1076 -1077 0
12 -66 -1076 1077 0
12 -66 -1076 -1077 0
12 -26 -41 46 0
36 78 1078 1079 0
36 78 1078 -1079 0
36 78 -1078 1079 0
36 78 -1078 -1079 0
-1 -13 30 1080 0
-1 -13 30 -1080 0
30 -36 58 1081 0
58 59 -71 -1081 0
2 -22 26 1082 0
26 -41 -1082 1083 0
-41 55 -1083 1084 0
55 58 -1084 1085 0
58 60 92 -1085 0
-24 44 64 1086 0
64 67 -1086 1087 0
67 68 -100 -1087 0
18 -32 54 1088 0
18 -32 54 -1088 0
-9 41 52 -98 0
-25 -57 60 1089 0
-25 -57 60 -1089 0
20 21 73 1090 0
20 21 73 -1090 0
30 49 51 1091 0
51 53 -1091 1092 0
53 88 -1092 1093 0
88 -97 100 -1093 0
47 52 -94 1094 0
47 52 -94 -1094 0
-25 -38 -48 1095 0
-25 -38 -48 -1095 0
8 19 76 1096 0
76 -85 -97 -1096 0
-7 13 -49 1097 0
-7 13 -49 -1097 0
3 22 23 1098 0
23 -58 -1098 1099 0
-58 67 77 -1099 0
10 -15 -34 1100 0
-34 36 -1100 1101 0
36 41 -47 -1101 0
44 -46 -79 -99 0
26 28 -43 1102 0
-43 45 81 -1102 0
-51 -73 -83 1103 0
-51 -73 -83 -1103 0
2 -46 -69 -84 0
-28 -41 63 1104 0
-28 -41 63 -1104 0
4 -5 -19 1105 0
-19 29 -1105 1106 0
29 -60 -1106 1107 0
-60 -62 -1107 1108 0
-62 -85 -1108 1109 0
-85 87 -88 -1109 0
5 14 -26 1110 0
-26 -30 66 -1110 0
-2 -47 78 1111 0
-2 -47 78 -1111 0
11 14 43 99 0
-2 89 100 1112 0
-2 89 100 -1112 0
68 -82 86 -97 0
7 8 -24 1113 0
-24 28 -1113 1114 0
28 30 -1114 1115 0
30 51 -1115 1116 0
51 -58 -1116 1117 0
-58 -67 -1117 1118 0
-67 -84 -89 -1118 0
36 51 1119 1120 0
36 51 1119 -1120 0
36 51 -1119 1120 0
36 51 -1119 -1120 0
-17 -42 53 1121 0
53 54 -1121 1122 0
54 -69 -1122 1123 0
-69 -72 99 -1123 0
31 34 56 1124 0
56 -71 -80 -1124 0
31 -52 64 -65 0
17 -23 -35 1125 0
-35 -56 -1125 1126 0
-56 58 -1126 1127 0
58 59 -1127 1128 0
59 -61 -1128 1129 0
-61 63 -1129 1130 0
63 64 -1130 1131 0
64 -66 -71 -1131 0
-9 30 -51 1132 0
-9 30 -51 -1132 0
2 3 22 1133 0
22 37 -1133 1134 0
37 -60 -1134 1135 0
-60 -69 -1135 1136 0
-69 81 92 -1136 0
8 -44 -94 1137 0
8 -44 -94 -1137 0
9 -37 55 -73 0
30 47 -87 92 0
12 26 -41 1138 0
-41 -57 -1138 1139 0
-57 -65 93 -1139 0
41 -45 -84 90 0
-6 -13 1140 1141 0
-6 -13 1140 -1141 0
-6 -13 -1140 1141 0
-6 -13 -1140 -1141 0
31 45 -56 67 0
1 33 -79 -84 0
14 21 30 1142 0
30 32 -1142 1143 0
32 37 -1143 1144 0
37 48 -1144 1145 0
48 -62 -1145 1146 0
-62 -65 75 -1146 0
-6 -33 41 50 0
-12 17 -37 1147 0
-37 -68 -1147 1148 0
-68 -77 -1148 1149 0
-77 88 -1149 1150 0
88 89 96 -1150 0
-28 -60 79 1151 0
79 -84 95 -1151 0
-12 37 -54 1152 0
-54 95 99 -1152 0
2 35 -68 1153 0
-68 -81 100 -1153 0
4 -10 13 1154 0
13 31 -1154 1155 0
31 -33 -83 -1155 0
18 80 90 1156 0
18 80 90 -1156 0
-31 -69 89 1157 0
-31 -69 89 -1157 0
51 52 -57 1158 0
-57 -71 -1158 1159 0
-71 79 -81 -1159 0
35 63 1160 1161 0
35 63 1160 -1161 0
35 63 -1160 1161 0
35 63 -1160 -1161 0
-13 17 -39 1162 0
-39 43 -1162 1163 0
43 -75 86 -1163 0
-35 58 -73 1164 0
-73 -78 -1164 1165 0
-78 -82 -1165 1166 0
-82 95 100 -1166 0
-36 60 -67 1167 0
-36 60 -67 -1167 0
33 -36 43 1168 0
43 78 -1168 1169 0
78 -88 -99 -1169 0
77 79 97 1170 0
77 79 97 -1170 0
2 5 -32 1171 0
-32 38 -1171 1172 0
38 63 -94 -1172 0
-1 52 1173 1174 0
-1 52 1173 -1174 0
-1 52 -1173 1174 0
-1 52 -1173 -1174 0
7 -88 91 1175 0
7 -88 91 -1175 0
10 17 -22 1176 0
-22 75 76 -1176 0
-34 74 80 95 0
-33 36 -57 -74 0
-47 66 71 1177 0
71 80 -92 -1177 0
2 -17 -43 1178 0
-43 54 -1178 1179 0
54 56 -1179 1180 0
56 -77 -1180 1181 0
-77 -79 -1181 1182 0
-79 88 -1182 1183 0
88 -94 -98 -1183 0
-17 -46 97 1184 0
-17 -46 97 -1184 0
27 55 82 1185 0
27 55 82 -1185 0
-4 -27 34 1186 0
34 -40 71 -1186 0
28 -32 -94 1187 0
28 -32 -94 -1187 0
-29 60 63 1188 0
63 -70 76 -1188 0
1 2 -9 1189 0
-9 -14 -1189 1190 0
-14 -20 -1190 1191 0
-20 79 -1191 1192 0
79 93 94 -1192 0
-33 42 -45 1193 0
-45 -69 -73 -1193 0
-10 -16 -29 1194 0
-29 56 -1194 1195 0
56 58 -1195 1196 0
58 75 -1196 1197 0
75 -88 -1197 1198 0
-88 95 -96 -1198 0
2 -3 41 1199 0
41 -51 -1199 1200 0
-51 67 -78 -1200 0
-11 -15 -20 1201 0
-20 -50 95 -1201 0
-13 -27 -31 1202 0
-31 -35 -1202 1203 0
-35 45 -1203 1204 0
45 -64 -1204 1205 0
-64 -84 -1205 1206 0
-84 89 -96 -1206 0
5 -16 -45 1207 0
-45 47 87 -1207 0
-15 -18 31 98 0
27 -32 39 1208 0
39 40 -1208 1209 0
40 75 -88 -1209 0
14 16 29 1210 0
29 30 -1210 1211 0
30 46 -1211 1212 0
46 50 -1212 1213 0
50 -56 -80 -1213 0
9 22 25 1214 0
25 27 -1214 1215 0
27 -41 -1215 1216 0
-41 -58 -1216 1217 0
-58 84 -94 -1217 0
-21 -27 1218 1219 0
-21 -27 1218 -1219 0
-21 -27 -1218 1219 0
-21 -27 -1218 -1219 0
10 11 -17 1220 0
-17 38 -1220 1221 0
38 -57 -98 -1221 0
7 33 -46 1222 0
-46 -56 -67 -1222 0
20 26 69 1223 0
20 26 69 -1223 0
-35 -42 69 1224 0
69 -90 98 -1224 0
26 -39 -62 1225 0
-62 -81 94 -1225 0
24 25 -36 1226 0
24 25 -36 -1226 0
-3 10 37 1227 0
37 -38 -1227 1228 0
-38 -49 -1228 1229 0
-49 -64 -1229 1230 0
-64 -67 -1230 1231 0
-67 -88 -100 -1231 0
-26 -31 37 1232 0
37 38 -1232 1233 0
38 66 98 -1233 0
46 -75 78 1234 0
78 -87 -90 -1234 0
-35 40 69 1235 0
69 -84 88 -1235 0
22 -44 53 1236 0
53 -54 -57 -1236 0
-59 69 1237 1238 0
-59 69 1237 -1238 0
-59 69 -1237 1238 0
-59 69 -1237 -1238 0
10 11 22 1239 0
22 30 -1239 1240 0
30 -38 -1240 1241 0
-38 -45 -84 -1241 0
-6 10 -18 1242 0
-18 21 -1242 1243 0
21 -22 -1243 1244 0
-22 56 -1244 1245 0
56 68 -1245 1246 0
68 92 -93 -1246 0
-22 38 56 -62 0
41 -63 -67 -79 0
3 -16 33 57 0
-8 40 1247 1248 0
-8 40 1247 -1248 0
-8 40 -1247 1248 0
-8 40 -1247 -1248 0
-12 -14 20 1249 0
20 68 -99 -1249 0
-9 -15 50 1250 0
-9 -15 50 -1250 0
-1 -11 26 1251 0
26 -37 -1251 1252 0
-37 76 -1252 1253 0
76 77 -86 -1253 0
46 70 87 1254 0
87 97 98 -1254 0
40 -79 82 1255 0
82 -88 91 -1255 0
6 -13 37 1256 0
37 46 -1256 1257 0
46 -84 100 -1257 0
90 -97 1258 1259 0
90 -97 1258 -1259 0
90 -97 -1258 1259 0
90 -97 -1258 -1259 0
1 -8 -11 1260 0
-11 32 -1260 1261 0
32 -40 -1261 1262 0
-40 -57 75 -1262 0
-29 66 -70 1263 0
-70 -92 95 -1263 0
-4 -44 47 1264 0
47 -59 -1264 1265 0
-59 72 -1265 1266 0
72 -77 -1266 1267 0
-77 -93 -1267 1268 0
-93 96 -99 -1268 0
31 43 -65 1269 0
-65 -74 -1269 1270 0
-74 85 -86 -1270 0
23 -51 53 92 0
41 96 1271 1272 0
41 96 1271 -1272 0
41 96 -1271 1272 0
41 96 -1271 -1272 0
-31 -60 -86 1273 0
-31 -60 -86 -1273 0
-1 -79 94 1274 0
-1 -79 94 -1274 0
-12 -24 53 -59 0
-6 12 19 1275 0
19 46 -1275 1276 0
46 -50 -1276 1277 0
-50 -69 -1277 1278 0
-69 -78 98 -1278 0
-46 54 -92 1279 0
-46 54 -92 -1279 0
-40 53 78 1280 0
-40 53 78 -1280 0
7 22 -28 1281 0
-28 -38 45 -1281 0
17 53 63 -91 0
70 -71 -93 1282 0
70 -71 -93 -1282 0
-32 -83 -94 -99 0
-1 -77 1283 1284 0
-1 -77 1283 -1284 0
-1 -77 -1283 1284 0
-1 -77 -1283 -1284 0
3 21 73 -86 0
-3 26 31 1285 0
31 47 -1285 1286 0
47 49 -1286 1287 0
49 -57 -1287 1288 0
-57 -75 -1288 1289 0
-75 78 -88 -1289 0
28 33 48 1290 0
48 -85 -97 -1290 0
-2 88 1291 1292 0
-2 88 1291 -1292 0
-2 88 -1291 1292 0
-2 88 -1291 -1292 0
1 46 -66 1293 0
-66 80 -82 -1293 0
88 -89 1294 1295 0
88 -89 1294 -1295 0
88 -89 -1294 1295 0
88 -89 -1294 -1295 0
10 21 -23 1296 0
-23 -27 -1296 1297 0
-27 54 -1297 1298 0
54 70 -1298 1299 0
70 72 -1299 1300 0
72 -94 -1300 1301 0
-94 97 99 -1301 0
-15 28 77 -82 0
-20 -55 -94 98 0
-40 -52 72 -82 0
35 -71 -80 86 0
3 -23 -32 1302 0
-32 -39 -1302 1303 0
-39 43 -1303 1304 0
43 -56 -1304 1305 0
-56 80 82 -1305 0
-5 -22 25 1306 0
25 -40 90 -1306 0
-15 -65 -94 1307 0
-15 -65 -94 -1307 0
-16 36 -41 1308 0
-41 44 -83 -1308 0
-8 12 15 1309 0
15 -17 -1309 1310 0
-17 -26 -1310 1311 0
-26 -52 -1311 1312 0
-52 -63 74 -1312 0
1 6 13 1313 0
13 -62 -1313 1314 0
-62 67 -1314 1315 0
67 -80 98 -1315 0
7 45 1316 1317 0
7 45 1316 -1317 0
7 45 -1316 1317 0
7 45 -1316 -1317 0
-10 20 38 1318 0
38 45 46 -1318 0
7 -40 43 1319 0
43 -56 -73 -1319 0
-35 89 97 100 0
-2 5 19 1320 0
19 -30 -1320 1321 0
-30 52 -1321 1322 0
52 71 -1322 1323 0
71 -77 -1323 1324 0
-77 -94 -96 -1324 0
80 -97 1325 1326 0
80 -97 1325 -1326 0
80 -97 -1325 1326 0
80 -97 -1325 -1326 0
-13 -72 1327 1328 0
-13 -72 1327 -1328 0
-13 -72 -1327 1328 0
-13 -72 -1327 -1328 0
-4 -30 45 1329 0
45 -70 -1329 1330 0
-70 88 -1330 1331 0
88 91 97 -1331 0
30 41 -75 1332 0
30 41 -75 -1332 0
4 5 46 1333 0
46 -60 -1333 1334 0
-60 95 -97 -1334 0
12 34 43 83 0
-2 44 85 100 0
-33 99 1335 1336 0
-33 99 1335 -1336 0
-33 99 -1335 1336 0
-33 99 -1335 -1336 0
-28 -32 1337 1338 0
-28 -32 1337 -1338 0
-28 -32 -1337 1338 0
-28 -32 -1337 -1338 0
36 67 -84 1339 0
36 67 -84 -1339 0
-18 40 -63 1340 0
-63 -67 -79 -1340 0
5 8 11 1341 0
11 -14 -1341 1342 0
-14 -58 -1342 1343 0
-58 60 -1343 1344 0
60 -61 -1344 1345 0
-61 71 -1345 1346 0
71 -75 -1346 1347 0
-75 -78 82 -1347 0
20 -31 -42 81 0
21 39 -44 1348 0
21 39 -44 -1348 0
-9 -48 53 1349 0
53 57 -1349 1350 0
57 -69 -1350 1351 0
-69 71 75 -1351 0
-12 29 -54 1352 0
-54 76 -1352 1353 0
76 80 92 -1353 0
22 32 -41 -93 0
18 22 -25 -73 0
22 -37 48 1354 0
48 54 -1354 1355 0
54 57 -1355 1356 0
57 59 -1356 1357 0
59 -73 -89 -1357 0
-1 -8 -27 1358 0
-27 -51 -1358 1359 0
-51 -56 -69 -1359 0
33 38 -41 1360 0
-41 -54 -96 -1360 0
22 -24 -27 1361 0
-27 -48 -71 -1361 0
3 -13 60 1362 0
3 -13 60 -1362 0
7 15 79 1363 0
7 15 79 -1363 0
53 54 -69 1364 0
53 54 -69 -1364 0
21 -30 51 67 0
12 -24 28 1365 0
28 30 -1365 1366 0
30 -33 41 -1366 0
22 28 -65 1367 0
22 28 -65 -1367 0
-13 -87 1368 1369 0
-13 -87 1368 -1369 0
-13 -87 -1368 1369 0
-13 -87 -1368 -1369 0
-1 12 13 1370 0
13 -54 -1370 1371 0
-54 -58 -1371 1372 0
-58 -62 89 -1372 0
-13 26 -91 1373 0
-13 26 -91 -1373 0
9 43 -48 1374 0
-48 -65 -1374 1375 0
-65 72 -1375 1376 0
72 77 -1376 1377 0
77 -82 92 -1377 0
29 -31 -36 1378 0
-36 40 -1378 1379 0
40 46 -1379 1380 0
46 57 66 -1380 0
-18 -31 35 1381 0
35 47 -1381 1382 0
47 -50 -1382 1383 0
-50 56 -1383 1384 0
56 -62 82 -1384 0
-7 83 100 1385 0
-7 83 100 -1385 0
-14 -68 -88 -91 0
1 -9 -11 1386 0
-11 -55 -1386 1387 0
-55 -85 -94 -1387 0
5 -28 -32 1388 0
-32 73 -1388 1389 0
73 84 -1389 1390 0
84 -85 -1390 1391 0
-85 -95 -98 -1391 0
-21 34 -68 83 0
-12 -14 38 1392 0
38 66 -1392 1393 0
66 -76 -1393 1394 0
-76 -84 -89 -1394 0
-23 -26 -51 64 0
27 -67 71 1395 0
27 -67 71 -1395 0
-15 40 63 68 0
21 -75 1396 1397 0
21 -75 1396 -1397 0
21 -75 -1396 1397 0
21 -75 -1396 -1397 0
21 -35 -50 55 0
45 87 1398 1399 0
45 87 1398 -1399 0
45 87 -1398 1399 0
45 87 -1398 -1399 0
-10 -22 39 1400 0
-10 -22 39 -1400 0
1 39 -45 1401 0
-45 67 -1401 1402 0
67 68 -80 -1402 0
-9 11 -31 1403 0
-31 35 -1403 1404 0
35 -50 -1404 1405 0
-50 64 -1405 1406 0
64 67 69 -1406 0
-33 53 73 1407 0
73 76 77 -1407 0
-7 27 -41 63 0
-18 50 61 1408 0
-18 50 61 -1408 0
-34 -66 69 1409 0
-34 -66 69 -1409 0
-6 9 29 1410 0
29 30 82 -1410 0
